c description: Random 3-CNF over 13 variables and 26 clauses
p cnf 13 26
-2 5 -9 0
-2 6 -13 0
-4 7 9 0
-4 -9 13 0
1 -9 -10 0
2 -6 -10 0
-1 -3 8 0
8 -9 10 0
-2 3 13 0
3 -4 6 0
-5 9 -10 0
1 -11 12 0
4 6 12 0
1 -9 11 0
-1 -5 -7 0
-3 11 12 0
-1 -3 -12 0
1 -3 -6 0
-8 10 12 0
1 7 13 0
-1 -4 -10 0
2 6 7 0
-4 -9 10 0
-1 2 -13 0
1 -4 13 0
8 10 -13 0